UBC_200_2.txt

VEHICLE     CAPACITY  LOCATIONS  CUSTOMER  OPTIONS  PRIORITIES  NUMTYPS
10		400		209		200		400		3		4

CUSTOMER  DEMAND
0	 10
1	 12
2	 19
3	 12
4	 20
5	 11
6	 14
7	 15
8	 15
9	 14
10	 10
11	 12
12	 16
13	 12
14	 11
15	 16
16	 20
17	 13
18	 17
19	 12
20	 19
21	 14
22	 13
23	 13
24	 17
25	 11
26	 18
27	 17
28	 16
29	 19
30	 14
31	 16
32	 16
33	 10
34	 19
35	 14
36	 13
37	 20
38	 14
39	 14
40	 10
41	 20
42	 18
43	 20
44	 15
45	 14
46	 19
47	 18
48	 10
49	 18
50	 19
51	 10
52	 11
53	 19
54	 12
55	 15
56	 16
57	 18
58	 13
59	 15
60	 19
61	 14
62	 10
63	 11
64	 13
65	 11
66	 14
67	 16
68	 18
69	 17
70	 17
71	 12
72	 12
73	 20
74	 14
75	 19
76	 12
77	 15
78	 11
79	 12
80	 15
81	 10
82	 13
83	 10
84	 10
85	 20
86	 15
87	 15
88	 18
89	 18
90	 20
91	 17
92	 12
93	 18
94	 17
95	 19
96	 17
97	 18
98	 16
99	 16
100	 11
101	 14
102	 16
103	 19
104	 12
105	 19
106	 17
107	 10
108	 19
109	 12
110	 20
111	 11
112	 10
113	 16
114	 15
115	 11
116	 12
117	 13
118	 14
119	 15
120	 14
121	 17
122	 10
123	 12
124	 16
125	 12
126	 16
127	 14
128	 18
129	 15
130	 12
131	 12
132	 17
133	 20
134	 12
135	 14
136	 20
137	 18
138	 16
139	 19
140	 18
141	 12
142	 10
143	 12
144	 13
145	 13
146	 17
147	 20
148	 11
149	 14
150	 12
151	 13
152	 10
153	 10
154	 13
155	 19
156	 18
157	 17
158	 17
159	 19
160	 19
161	 20
162	 15
163	 20
164	 15
165	 18
166	 10
167	 18
168	 12
169	 12
170	 15
171	 12
172	 11
173	 20
174	 12
175	 10
176	 17
177	 20
178	 19
179	 17
180	 15
181	 20
182	 18
183	 20
184	 16
185	 13
186	 18
187	 17
188	 15
189	 14
190	 13
191	 11
192	 15
193	 13
194	 14
195	 15
196	 10
197	 11
198	 10
199	 13

LOCATION  XCOORD  YCOORD  CAP  READY  DUE  TYP  SERVICETIME
0		38		35		-1		0		720	 0		0
1		6		25		-1		148		388		 2		6
2		30		4		-1		360		720		 2		6
3		1		7		-1		33		153		 2		6
4		14		26		-1		466		586		 2		6
5		7		29		-1		359		599		 2		6
6		47		36		-1		238		478		 2		6
7		37		7		-1		368		488		 2		6
8		45		24		-1		360		720		 2		6
9		26		43		-1		360		720		 2		6
10		22		42		-1		360		720		 2		6
11		23		45		-1		308		548		 2		6
12		6		28		-1		454		574		 2		6
13		23		26		-1		322		562		 2		6
14		19		20		-1		44		164		 2		6
15		42		7		-1		0		360		 2		6
16		14		46		-1		360		720		 2		6
17		25		7		-1		490		610		 2		6
18		7		25		-1		285		525		 2		6
19		31		6		-1		0		360		 2		6
20		47		14		-1		285		525		 2		6
21		18		42		-1		360		720		 2		6
22		7		19		-1		360		720		 2		6
23		44		38		-1		360		720		 2		6
24		21		17		-1		466		706		 2		6
25		36		5		-1		360		720		 2		6
26		12		43		-1		0		360		 2		6
27		30		48		-1		0		360		 2		6
28		11		48		-1		0		360		 2		6
29		28		46		-1		0		360		 2		6
30		25		9		-1		360		720		 2		6
31		33		29		-1		482		602		 2		6
32		9		14		-1		360		720		 2		6
33		42		3		-1		0		360		 2		6
34		14		14		-1		93		333		 2		6
35		6		38		-1		434		554		 2		6
36		28		20		-1		360		720		 2		6
37		39		37		-1		167		287		 2		6
38		14		38		-1		406		526		 2		6
39		12		16		-1		233		473		 2		6
40		8		3		-1		363		483		 2		6
41		27		50		-1		500		620		 2		6
42		28		40		-1		97		217		 2		6
43		31		25		-1		291		531		 2		6
44		14		9		-1		432		552		 2		6
45		48		9		-1		378		498		 2		6
46		33		23		-1		360		720		 2		6
47		13		2		-1		164		404		 2		6
48		34		37		-1		360		720		 2		6
49		39		40		-1		360		720		 2		6
50		13		40		-1		426		546		 2		6
51		12		39		-1		360		720		 2		6
52		39		47		-1		96		336		 2		6
53		6		8		-1		597		717		 2		6
54		15		5		-1		112		232		 2		6
55		16		9		-1		0		360		 2		6
56		37		25		-1		360		720		 2		6
57		40		42		-1		360		720		 2		6
58		49		33		-1		173		293		 2		6
59		47		33		-1		15		135		 2		6
60		31		31		-1		426		666		 2		6
61		33		47		-1		34		154		 2		6
62		17		50		-1		0		360		 2		6
63		18		45		-1		433		673		 2		6
64		50		41		-1		86		206		 2		6
65		27		44		-1		48		168		 2		6
66		9		8		-1		395		635		 2		6
67		2		16		-1		0		360		 2		6
68		47		1		-1		0		360		 2		6
69		50		50		-1		421		541		 2		6
70		30		21		-1		108		228		 2		6
71		30		7		-1		448		688		 2		6
72		39		16		-1		481		601		 2		6
73		14		45		-1		156		396		 2		6
74		41		8		-1		419		539		 2		6
75		49		45		-1		325		565		 2		6
76		30		37		-1		131		251		 2		6
77		36		11		-1		456		696		 2		6
78		7		34		-1		154		274		 2		6
79		5		32		-1		353		593		 2		6
80		20		2		-1		360		720		 2		6
81		31		44		-1		97		217		 2		6
82		30		17		-1		0		360		 2		6
83		12		23		-1		0		360		 2		6
84		26		15		-1		429		549		 2		6
85		27		23		-1		21		261		 2		6
86		15		49		-1		220		340		 2		6
87		39		49		-1		369		489		 2		6
88		38		47		-1		0		360		 2		6
89		41		16		-1		123		243		 2		6
90		31		20		-1		0		360		 2		6
91		48		23		-1		384		504		 2		6
92		39		9		-1		597		717		 2		6
93		5		38		-1		0		360		 2		6
94		34		22		-1		360		720		 2		6
95		11		41		-1		50		170		 2		6
96		11		31		-1		0		360		 2		6
97		27		1		-1		0		360		 2		6
98		19		43		-1		443		563		 2		6
99		27		18		-1		517		637		 2		6
100		11		39		-1		0		360		 2		6
101		14		31		-1		539		659		 2		6
102		12		37		-1		360		720		 2		6
103		38		4		-1		412		532		 2		6
104		46		1		-1		360		720		 2		6
105		24		20		-1		20		140		 2		6
106		3		39		-1		0		360		 2		6
107		12		43		-1		235		475		 2		6
108		28		49		-1		0		360		 2		6
109		43		2		-1		583		703		 2		6
110		19		46		-1		434		674		 2		6
111		9		39		-1		411		531		 2		6
112		10		23		-1		211		451		 2		6
113		4		31		-1		470		590		 2		6
114		2		40		-1		458		578		 2		6
115		18		37		-1		360		720		 2		6
116		18		13		-1		539		659		 2		6
117		17		29		-1		360		480		 2		6
118		43		26		-1		588		708		 2		6
119		29		18		-1		290		530		 2		6
120		36		3		-1		0		360		 2		6
121		7		45		-1		51		291		 2		6
122		18		8		-1		0		360		 2		6
123		9		25		-1		360		720		 2		6
124		24		44		-1		248		488		 2		6
125		20		12		-1		290		530		 2		6
126		21		44		-1		474		594		 2		6
127		20		36		-1		0		360		 2		6
128		10		36		-1		387		507		 2		6
129		45		25		-1		360		720		 2		6
130		46		41		-1		0		360		 2		6
131		34		21		-1		457		577		 2		6
132		26		19		-1		179		419		 2		6
133		7		12		-1		91		211		 2		6
134		12		13		-1		38		158		 2		6
135		47		30		-1		183		303		 2		6
136		33		49		-1		200		320		 2		6
137		34		37		-1		360		720		 2		6
138		39		49		-1		121		241		 2		6
139		25		40		-1		0		360		 2		6
140		18		43		-1		445		565		 2		6
141		13		36		-1		572		692		 2		6
142		12		48		-1		410		530		 2		6
143		32		43		-1		360		720		 2		6
144		8		47		-1		585		705		 2		6
145		33		39		-1		148		268		 2		6
146		24		3		-1		516		636		 2		6
147		31		7		-1		360		720		 2		6
148		29		8		-1		70		190		 2		6
149		30		49		-1		360		720		 2		6
150		5		8		-1		198		318		 2		6
151		48		3		-1		360		720		 2		6
152		3		25		-1		23		143		 2		6
153		37		16		-1		360		720		 2		6
154		45		19		-1		0		360		 2		6
155		36		11		-1		462		582		 2		6
156		39		15		-1		141		261		 2		6
157		38		12		-1		170		290		 2		6
158		9		10		-1		592		712		 2		6
159		3		42		-1		303		543		 2		6
160		7		44		-1		111		351		 2		6
161		38		42		-1		106		346		 2		6
162		42		42		-1		0		360		 2		6
163		49		21		-1		80		320		 2		6
164		44		40		-1		0		360		 2		6
165		16		9		-1		473		713		 2		6
166		50		21		-1		0		360		 2		6
167		10		35		-1		170		410		 2		6
168		45		17		-1		0		360		 2		6
169		4		28		-1		180		300		 2		6
170		40		39		-1		0		360		 2		6
171		45		25		-1		137		377		 2		6
172		29		14		-1		172		292		 2		6
173		38		45		-1		426		546		 2		6
174		8		25		-1		74		194		 2		6
175		42		41		-1		0		360		 2		6
176		4		50		-1		50		170		 2		6
177		49		48		-1		0		360		 2		6
178		20		35		-1		318		558		 2		6
179		2		9		-1		112		232		 2		6
180		36		46		-1		240		480		 2		6
181		46		6		-1		360		720		 2		6
182		19		22		-1		173		413		 2		6
183		43		6		-1		0		360		 2		6
184		6		10		-1		374		494		 2		6
185		48		6		-1		0		360		 2		6
186		37		23		-1		0		360		 2		6
187		30		34		-1		360		720		 2		6
188		33		41		-1		458		578		 2		6
189		12		43		-1		0		360		 2		6
190		7		11		-1		121		241		 2		6
191		35		4		-1		0		360		 2		6
192		47		5		-1		175		295		 2		6
193		11		45		-1		24		144		 2		6
194		10		11		-1		0		360		 2		6
195		18		20		-1		112		232		 2		6
196		3		23		-1		0		360		 2		6
197		35		46		-1		323		563		 2		6
198		19		24		-1		360		720		 2		6
199		39		1		-1		578		698		 2		6
200		16		37		-1		370		610		 2		6
201		42		39		30		75		555		 1		4
202		9		30		30		25		505		 1		4
203		35		23		30		211		691		 1		4
204		33		23		26		0		720		 1		4
205		36		29		30		48		528		 1		4
206		41		39		30		0		720		 1		4
207		28		12		30		160		640		 1		4
208		30		42		24		0		720		 1		4
OPTION  LOCATION  CUSTOMER  PRIO  SERVICETIME   COST
0		203		0		0		2		0
1		206		1		0		2		0
2		201		2		0		2		0
3		208		3		0		2		0
4		205		4		0		2		0
5		207		5		0		2		0
6		204		6		0		2		0
7		204		7		0		2		0
8		207		8		0		2		0
9		206		9		0		2		0
10		201		10		0		2		0
11		204		11		0		2		0
12		201		12		0		2		0
13		208		13		0		2		0
14		202		14		0		2		0
15		206		15		0		2		0
16		206		16		0		2		0
17		201		17		0		2		0
18		204		18		0		2		0
19		206		19		0		2		0
20		202		20		0		2		0
21		201		21		0		2		0
22		204		22		0		2		0
23		205		23		0		2		0
24		207		24		0		2		0
25		201		25		0		2		0
26		203		26		0		2		0
27		206		27		0		2		0
28		208		28		0		2		0
29		201		29		0		2		0
30		202		30		0		2		0
31		208		31		0		2		0
32		203		32		0		2		0
33		202		33		0		2		0
34		206		34		0		2		0
35		203		35		0		2		0
36		205		36		0		2		0
37		208		37		0		2		0
38		201		38		0		2		0
39		204		39		0		2		0
40		1		40		0		5		0
41		2		41		0		5		0
42		3		42		0		5		0
43		4		43		0		5		0
44		5		44		0		5		0
45		6		45		0		5		0
46		7		46		0		5		0
47		8		47		0		5		0
48		9		48		0		5		0
49		10		49		0		5		0
50		11		50		0		5		0
51		12		51		0		5		0
52		13		52		0		5		0
53		14		53		0		5		0
54		15		54		0		5		0
55		16		55		0		5		0
56		17		56		0		5		0
57		18		57		0		5		0
58		19		58		0		5		0
59		20		59		0		5		0
60		21		60		0		5		0
61		22		61		0		5		0
62		23		62		0		5		0
63		24		63		0		5		0
64		25		64		0		5		0
65		26		65		0		5		0
66		27		66		0		5		0
67		28		67		0		5		0
68		29		68		0		5		0
69		30		69		0		5		0
70		31		70		0		5		0
71		32		71		0		5		0
72		33		72		0		5		0
73		34		73		0		5		0
74		35		74		0		5		0
75		36		75		0		5		0
76		37		76		0		5		0
77		38		77		0		5		0
78		39		78		0		5		0
79		40		79		0		5		0
80		41		80		0		5		0
81		206		80		1		2		0
82		42		81		1		5		0
83		205		81		0		2		0
84		43		82		0		5		0
85		206		82		1		2		0
86		44		83		0		5		0
87		204		83		1		2		0
88		45		84		0		5		0
89		208		84		1		2		0
90		46		85		0		5		0
91		204		85		1		2		0
92		47		86		1		5		0
93		202		86		0		2		0
94		48		87		1		5		0
95		206		87		0		2		0
96		49		88		0		5		0
97		208		88		1		2		0
98		50		89		0		5		0
99		208		89		1		2		0
100		51		90		1		5		0
101		208		90		0		2		0
102		52		91		1		5		0
103		205		91		0		2		0
104		53		92		0		5		0
105		207		92		1		2		0
106		54		93		1		5		0
107		204		93		0		2		0
108		55		94		1		5		0
109		202		94		0		2		0
110		56		95		0		5		0
111		207		95		1		2		0
112		57		96		1		5		0
113		207		96		0		2		0
114		58		97		1		5		0
115		205		97		0		2		0
116		59		98		1		5		0
117		207		98		0		2		0
118		60		99		1		5		0
119		208		99		0		2		0
120		61		100		0		5		0
121		202		100		1		2		0
122		62		101		1		5		0
123		208		101		0		2		0
124		63		102		0		5		0
125		206		102		1		2		0
126		64		103		1		5		0
127		205		103		0		2		0
128		65		104		1		5		0
129		206		104		0		2		0
130		66		105		0		5		0
131		206		105		1		2		0
132		67		106		0		5		0
133		201		106		1		2		0
134		68		107		0		5		0
135		203		107		1		2		0
136		69		108		1		5		0
137		208		108		0		2		0
138		70		109		1		5		0
139		205		109		0		2		0
140		71		110		0		5		0
141		205		110		1		2		0
142		72		111		0		5		0
143		205		111		1		2		0
144		73		112		0		5		0
145		206		112		1		2		0
146		74		113		0		5		0
147		203		113		1		2		0
148		75		114		1		5		0
149		205		114		0		2		0
150		76		115		0		5		0
151		208		115		1		2		0
152		77		116		1		5		0
153		203		116		0		2		0
154		78		117		0		5		0
155		202		117		1		2		0
156		79		118		1		5		0
157		204		118		0		2		0
158		80		119		1		5		0
159		202		119		0		2		0
160		81		120		0		5		0
161		201		120		1		2		0
162		206		120		2		2		0
163		82		121		0		5		0
164		207		121		2		2		0
165		205		121		1		2		0
166		83		122		2		5		0
167		204		122		0		2		0
168		207		122		1		2		0
169		84		123		0		5		0
170		206		123		2		2		0
171		202		123		1		2		0
172		85		124		1		5		0
173		206		124		2		2		0
174		207		124		0		2		0
175		86		125		2		5		0
176		202		125		1		2		0
177		207		125		0		2		0
178		87		126		2		5		0
179		203		126		0		2		0
180		206		126		1		2		0
181		88		127		0		5		0
182		203		127		1		2		0
183		208		127		2		2		0
184		89		128		2		5		0
185		205		128		0		2		0
186		203		128		1		2		0
187		90		129		2		5		0
188		203		129		0		2		0
189		204		129		1		2		0
190		91		130		1		5		0
191		201		130		0		2		0
192		203		130		2		2		0
193		92		131		0		5		0
194		207		131		2		2		0
195		201		131		1		2		0
196		93		132		1		5		0
197		204		132		0		2		0
198		205		132		2		2		0
199		94		133		1		5		0
200		207		133		0		2		0
201		202		133		2		2		0
202		95		134		2		5		0
203		204		134		0		2		0
204		205		134		1		2		0
205		96		135		2		5		0
206		202		135		0		2		0
207		208		135		1		2		0
208		97		136		0		5		0
209		204		136		2		2		0
210		203		136		1		2		0
211		98		137		1		5		0
212		208		137		2		2		0
213		206		137		0		2		0
214		99		138		0		5		0
215		203		138		2		2		0
216		205		138		1		2		0
217		100		139		1		5		0
218		205		139		2		2		0
219		204		139		0		2		0
220		101		140		1		5		0
221		205		140		0		2		0
222		208		140		2		2		0
223		102		141		0		5		0
224		202		141		1		2		0
225		201		141		2		2		0
226		103		142		0		5		0
227		207		142		2		2		0
228		205		142		1		2		0
229		104		143		0		5		0
230		201		143		1		2		0
231		203		143		2		2		0
232		105		144		1		5		0
233		204		144		0		2		0
234		202		144		2		2		0
235		106		145		2		5		0
236		208		145		0		2		0
237		205		145		1		2		0
238		107		146		0		5		0
239		202		146		2		2		0
240		208		146		1		2		0
241		108		147		2		5		0
242		206		147		0		2		0
243		204		147		1		2		0
244		109		148		0		5		0
245		204		148		1		2		0
246		207		148		2		2		0
247		110		149		2		5		0
248		202		149		0		2		0
249		208		149		1		2		0
250		111		150		2		5		0
251		204		150		0		2		0
252		202		150		1		2		0
253		112		151		0		5		0
254		202		151		1		2		0
255		207		151		2		2		0
256		113		152		0		5		0
257		204		152		1		2		0
258		201		152		2		2		0
259		114		153		0		5		0
260		202		153		2		2		0
261		208		153		1		2		0
262		115		154		2		5		0
263		207		154		1		2		0
264		208		154		0		2		0
265		116		155		1		5		0
266		204		155		2		2		0
267		202		155		0		2		0
268		117		156		0		5		0
269		208		156		2		2		0
270		202		156		1		2		0
271		118		157		0		5		0
272		204		157		1		2		0
273		201		157		2		2		0
274		119		158		1		5		0
275		203		158		0		2		0
276		201		158		2		2		0
277		120		159		1		5		0
278		204		159		2		2		0
279		203		159		0		2		0
280		121		160		2		5		0
281		122		160		0		5		0
282		205		160		1		2		0
283		123		161		1		5		0
284		124		161		2		5		0
285		202		161		0		2		0
286		125		162		2		5		0
287		126		162		0		5		0
288		207		162		1		2		0
289		127		163		2		5		0
290		128		163		1		5		0
291		208		163		0		2		0
292		129		164		2		5		0
293		130		164		0		5		0
294		201		164		1		2		0
295		131		165		2		5		0
296		132		165		0		5		0
297		206		165		1		2		0
298		133		166		2		5		0
299		134		166		0		5		0
300		203		166		1		2		0
301		135		167		2		5		0
302		136		167		0		5		0
303		205		167		1		2		0
304		137		168		2		5		0
305		138		168		1		5		0
306		201		168		0		2		0
307		139		169		0		5		0
308		140		169		2		5		0
309		202		169		1		2		0
310		141		170		2		5		0
311		142		170		0		5		0
312		205		170		1		2		0
313		143		171		2		5		0
314		144		171		0		5		0
315		201		171		1		2		0
316		145		172		0		5		0
317		146		172		2		5		0
318		206		172		1		2		0
319		147		173		2		5		0
320		148		173		1		5		0
321		203		173		0		2		0
322		149		174		1		5		0
323		150		174		2		5		0
324		208		174		0		2		0
325		151		175		2		5		0
326		152		175		1		5		0
327		204		175		0		2		0
328		153		176		0		5		0
329		154		176		1		5		0
330		202		176		2		2		0
331		155		177		1		5		0
332		156		177		2		5		0
333		205		177		0		2		0
334		157		178		2		5		0
335		158		178		0		5		0
336		202		178		1		2		0
337		159		179		1		5		0
338		160		179		0		5		0
339		205		179		2		2		0
340		161		180		0		5		0
341		162		180		1		5		0
342		206		180		2		2		0
343		163		181		1		5		0
344		164		181		0		5		0
345		203		181		2		2		0
346		165		182		0		5		0
347		166		182		1		5		0
348		202		182		2		2		0
349		167		183		2		5		0
350		168		183		0		5		0
351		201		183		1		2		0
352		169		184		2		5		0
353		170		184		1		5		0
354		208		184		0		2		0
355		171		185		1		5		0
356		172		185		0		5		0
357		207		185		2		2		0
358		173		186		0		5		0
359		174		186		2		5		0
360		202		186		1		2		0
361		175		187		1		5		0
362		176		187		0		5		0
363		201		187		2		2		0
364		177		188		1		5		0
365		178		188		2		5		0
366		206		188		0		2		0
367		179		189		2		5		0
368		180		189		0		5		0
369		208		189		1		2		0
370		181		190		1		5		0
371		182		190		0		5		0
372		202		190		2		2		0
373		183		191		1		5		0
374		184		191		0		5		0
375		207		191		2		2		0
376		185		192		1		5		0
377		186		192		0		5		0
378		204		192		2		2		0
379		187		193		2		5		0
380		188		193		0		5		0
381		205		193		1		2		0
382		189		194		0		5		0
383		190		194		1		5		0
384		208		194		2		2		0
385		191		195		0		5		0
386		192		195		1		5		0
387		207		195		2		2		0
388		193		196		2		5		0
389		194		196		1		5		0
390		204		196		0		2		0
391		195		197		0		5		0
392		196		197		1		5		0
393		204		197		2		2		0
394		197		198		1		5		0
395		198		198		0		5		0
396		201		198		2		2		0
397		199		199		0		5		0
398		200		199		1		5		0
399		201		199		2		2		0
